60
1 0 5
2 0 5
2 1 5
3 1 7
3 2 4
4 0 7
4 1 4
5 1 7
5 3 7
5 4 2
6 1 2
6 2 4
6 4 5
7 1 6
7 5 7
8 0 4
8 1 9
8 3 4
8 6 5
8 7 8
9 1 8
9 6 6
9 7 6
10 1 5
10 2 4
10 4 9
10 5 8
11 0 4
11 1 8
11 2 4
11 4 5
11 6 6
11 8 2
11 10 5
12 5 6
12 8 7
12 10 6
13 1 1
13 7 3
13 8 6
13 10 1
13 12 5
14 1 9
14 2 1
14 4 4
14 5 2
14 6 2
14 7 9
14 9 1
14 11 6
14 13 5
15 1 5
15 8 2
15 14 7
16 0 9
16 1 1
16 5 3
16 6 8
16 7 9
16 10 5
16 12 6
16 13 3
16 14 2
16 15 8
17 5 8
17 6 7
17 7 5
17 8 9
17 9 1
17 10 5
17 11 3
17 13 9
17 14 9
18 2 9
18 3 2
18 4 1
18 6 9
18 7 5
18 11 8
18 13 1
18 16 5
19 0 6
19 1 7
19 2 2
19 5 6
19 10 6
19 11 3
19 12 6
19 14 6
19 18 9
20 0 4
20 4 8
20 5 4
20 7 3
20 9 1
20 13 2
20 14 7
20 15 8
20 16 2
20 17 1
20 19 6
21 1 3
21 3 6
21 6 6
21 9 2
21 10 6
21 13 4
21 20 9
22 1 7
22 3 8
22 6 9
22 8 7
22 12 2
22 13 2
22 14 5
22 16 1
22 17 3
22 18 2
22 19 7
22 20 7
23 0 3
23 1 8
23 2 8
23 3 2
23 7 6
23 8 8
23 11 3
23 15 5
23 16 7
23 17 3
23 19 8
23 21 8
23 22 1
24 1 5
24 6 3
24 7 5
24 9 2
24 10 4
24 11 2
24 12 1
24 13 1
24 16 5
24 17 5
24 18 9
24 21 4
24 23 1
25 0 8
25 2 2
25 3 4
25 7 5
25 8 9
25 9 8
25 10 6
25 12 3
25 15 5
25 16 4
25 17 8
25 18 4
25 19 2
25 20 3
25 22 9
26 2 8
26 4 8
26 5 8
26 10 7
26 12 9
26 14 7
26 17 2
26 18 4
26 20 4
26 22 8
27 2 3
27 3 2
27 5 2
27 6 2
27 10 3
27 11 2
27 13 2
27 14 8
27 15 5
27 16 6
27 19 1
27 21 2
27 22 3
27 24 3
27 26 2
28 1 5
28 4 6
28 8 4
28 10 4
28 11 4
28 12 5
28 15 4
28 16 1
28 17 8
28 18 2
28 19 4
28 20 5
28 21 5
28 22 3
28 25 7
29 1 1
29 7 7
29 8 7
29 10 7
29 11 9
29 18 5
29 20 3
29 23 6
29 24 1
29 28 2
30 1 8
30 2 8
30 5 4
30 6 2
30 12 5
30 14 8
30 15 9
30 17 3
30 18 5
30 19 7
30 24 5
31 1 8
31 3 6
31 4 6
31 8 9
31 10 1
31 11 3
31 12 3
31 13 9
31 14 7
31 15 4
31 16 1
31 17 8
31 18 9
31 19 4
31 20 5
31 21 6
31 22 1
31 29 1
31 30 1
32 0 6
32 1 8
32 2 7
32 3 1
32 5 4
32 6 4
32 8 1
32 10 1
32 12 8
32 13 4
32 25 9
32 26 1
32 27 3
32 28 4
32 30 6
33 0 9
33 1 8
33 6 2
33 10 2
33 11 6
33 13 6
33 15 6
33 16 5
33 17 2
33 18 7
33 23 2
33 24 4
33 29 5
33 30 3
33 31 3
33 32 8
34 1 5
34 2 2
34 4 8
34 5 2
34 6 1
34 7 4
34 10 7
34 11 8
34 14 2
34 18 4
34 20 2
34 21 7
34 22 3
34 26 5
34 27 1
34 28 2
34 29 5
35 1 2
35 2 6
35 6 9
35 8 5
35 9 1
35 10 7
35 12 5
35 15 9
35 16 5
35 18 1
35 20 9
35 23 3
35 26 4
35 28 7
35 30 3
35 32 1
36 1 8
36 3 7
36 4 6
36 5 3
36 7 6
36 11 3
36 12 9
36 14 7
36 17 1
36 18 2
36 21 8
36 22 5
36 25 2
36 26 3
36 27 8
36 29 6
36 31 1
36 32 6
36 33 1
36 35 7
37 4 1
37 6 1
37 9 5
37 10 2
37 13 8
37 15 1
37 16 8
37 19 5
37 20 8
37 21 8
37 25 4
37 27 8
37 28 9
37 32 6
37 33 5
37 34 4
37 36 1
38 0 6
38 2 2
38 5 2
38 6 4
38 8 5
38 9 7
38 14 3
38 16 9
38 23 5
38 25 4
38 26 9
38 28 1
38 30 8
38 33 3
38 35 7
38 36 1
38 37 8
39 0 7
39 1 3
39 2 4
39 8 3
39 11 9
39 14 8
39 15 8
39 16 5
39 18 8
39 19 2
39 22 8
39 23 1
39 27 5
39 31 4
39 33 4
39 37 1
39 38 4
40 0 3
40 3 9
40 6 5
40 8 5
40 10 6
40 12 9
40 15 8
40 17 4
40 18 3
40 25 6
40 30 5
40 32 1
40 34 2
40 35 2
40 36 6
40 38 7
40 39 4
41 0 3
41 1 2
41 2 7
41 3 9
41 5 2
41 8 8
41 9 2
41 12 2
41 13 3
41 16 6
41 17 6
41 18 5
41 19 2
41 20 7
41 22 7
41 27 8
41 28 2
41 30 3
41 31 4
41 32 3
41 33 6
41 34 9
41 35 2
41 36 1
41 39 8
41 40 3
42 0 9
42 1 4
42 2 9
42 7 8
42 8 6
42 9 7
42 12 9
42 14 6
42 16 6
42 17 8
42 19 5
42 20 5
42 22 1
42 23 6
42 24 5
42 26 5
42 27 9
42 28 2
42 31 6
42 33 1
42 38 7
42 39 7
42 41 1
43 1 5
43 2 8
43 3 5
43 4 1
43 5 4
43 7 4
43 8 7
43 9 4
43 12 6
43 13 3
43 14 1
43 15 5
43 17 3
43 21 3
43 24 8
43 25 5
43 29 2
43 33 2
43 34 9
43 35 2
43 39 3
43 40 3
43 42 6
44 0 8
44 3 2
44 4 8
44 9 2
44 10 7
44 12 8
44 13 5
44 14 9
44 16 6
44 18 2
44 19 2
44 21 5
44 22 2
44 23 1
44 25 3
44 26 2
44 27 8
44 28 6
44 31 4
44 32 9
44 33 8
44 36 7
44 37 6
44 41 2
44 42 7
45 0 9
45 4 9
45 5 1
45 6 1
45 10 6
45 13 7
45 14 6
45 15 1
45 17 6
45 18 3
45 19 7
45 20 2
45 25 4
45 28 2
45 29 6
45 31 1
45 33 6
45 36 2
45 37 2
45 40 3
45 41 8
45 43 8
45 44 4
46 1 7
46 2 2
46 5 5
46 8 7
46 9 8
46 12 1
46 13 1
46 15 9
46 17 7
46 18 2
46 21 1
46 22 1
46 23 6
46 27 1
46 28 1
46 31 5
46 32 4
46 33 5
46 35 8
46 36 9
46 37 4
46 44 8
47 1 4
47 2 6
47 7 7
47 9 2
47 11 6
47 13 9
47 14 7
47 16 3
47 18 1
47 19 3
47 23 4
47 25 1
47 27 6
47 29 8
47 30 8
47 31 4
47 33 7
47 35 4
47 36 7
47 37 7
47 39 9
47 42 8
47 44 5
47 45 4
48 0 2
48 1 7
48 3 5
48 6 5
48 8 1
48 10 2
48 12 7
48 13 7
48 17 1
48 19 6
48 25 6
48 26 3
48 29 5
48 30 8
48 35 3
48 37 3
48 38 5
48 41 7
48 42 5
48 43 4
48 45 1
49 1 3
49 2 1
49 5 3
49 6 9
49 8 9
49 13 1
49 14 4
49 16 3
49 17 7
49 18 9
49 19 5
49 20 8
49 22 8
49 23 7
49 24 7
49 25 4
49 26 2
49 27 3
49 29 9
49 31 4
49 34 4
49 36 6
49 37 9
49 42 5
49 44 5
49 45 7
49 47 1
49 48 6
50 0 3
50 1 3
50 4 7
50 6 8
50 7 1
50 8 3
50 9 2
50 11 7
50 13 4
50 15 9
50 17 4
50 19 8
50 21 4
50 22 3
50 23 8
50 24 3
50 26 7
50 27 6
50 29 9
50 30 2
50 31 5
50 32 3
50 34 5
50 36 1
50 37 9
50 39 2
50 40 4
50 44 5
50 46 7
51 0 2
51 1 1
51 3 2
51 6 6
51 7 8
51 8 3
51 9 2
51 10 8
51 15 8
51 17 1
51 25 8
51 27 4
51 28 6
51 32 4
51 33 2
51 34 1
51 35 6
51 37 1
51 38 8
51 39 5
51 43 4
51 49 1
52 0 6
52 2 7
52 3 2
52 4 2
52 5 5
52 7 9
52 8 1
52 9 9
52 11 8
52 12 3
52 13 7
52 14 3
52 15 3
52 16 8
52 18 6
52 20 2
52 21 5
52 22 2
52 23 5
52 24 1
52 26 2
52 29 9
52 32 7
52 33 6
52 35 8
52 36 2
52 38 6
52 39 2
52 40 6
52 42 4
52 43 1
52 45 5
52 49 8
52 51 6
53 3 2
53 6 8
53 7 6
53 9 8
53 11 2
53 12 6
53 15 5
53 18 9
53 22 4
53 24 9
53 25 4
53 26 8
53 28 3
53 31 4
53 35 8
53 38 4
53 41 3
53 43 8
53 47 2
53 49 9
53 50 9
53 51 9
53 52 4
54 0 5
54 4 3
54 5 4
54 6 8
54 7 7
54 8 4
54 10 4
54 11 8
54 14 8
54 16 4
54 18 8
54 19 6
54 20 2
54 21 3
54 23 1
54 28 6
54 29 9
54 30 5
54 32 5
54 33 6
54 34 4
54 42 6
54 45 5
54 46 6
54 49 3
54 50 9
54 51 9
54 53 2
55 0 1
55 1 8
55 8 8
55 10 2
55 12 7
55 13 4
55 15 3
55 16 2
55 18 7
55 20 4
55 23 2
55 24 7
55 26 1
55 28 5
55 32 8
55 34 6
55 35 1
55 44 1
55 47 2
55 48 4
55 49 1
55 50 1
55 53 9
55 54 5
56 1 7
56 2 1
56 6 6
56 8 7
56 9 7
56 11 5
56 12 3
56 18 1
56 26 5
56 27 9
56 30 1
56 32 4
56 33 9
56 36 8
56 37 1
56 41 8
56 42 5
56 44 5
56 45 7
56 46 3
56 47 8
56 50 3
56 51 8
56 52 7
56 55 3
57 2 2
57 3 2
57 6 6
57 7 4
57 8 8
57 10 6
57 11 9
57 15 8
57 16 5
57 17 2
57 20 6
57 21 7
57 25 6
57 28 2
57 29 1
57 31 8
57 32 6
57 33 2
57 34 6
57 35 8
57 36 3
57 37 8
57 38 5
57 39 1
57 42 9
57 45 5
57 46 8
57 49 1
58 2 6
58 5 4
58 9 6
58 12 9
58 13 3
58 14 7
58 18 9
58 19 2
58 20 3
58 21 6
58 23 5
58 24 5
58 25 2
58 31 8
58 33 1
58 35 3
58 36 8
58 38 3
58 39 5
58 40 2
58 42 3
58 48 7
58 49 6
58 51 8
58 52 7
58 54 4
58 56 4
58 57 1
59 0 5
59 2 5
59 3 8
59 4 5
59 5 2
59 8 8
59 11 6
59 15 9
59 23 8
59 26 6
59 27 7
59 31 5
59 32 1
59 34 4
59 35 5
59 37 1
59 40 7
59 44 1
59 49 7
59 54 4
59 58 5
